(set-logic QF_S)
(declare-fun J () String)
(declare-fun I () String)
(declare-fun K () String)
(declare-fun R () String)
(declare-fun G () String)
(declare-fun L () String)
(declare-fun N () String)
(declare-fun M () String)
(declare-fun P () String)
(assert (= (str.++  J "aa" J "ab" N L "a" K "b" P P "ba")  (str.++  "a" G I "aa" M M M M "baaaab" R R "baa") ))
(check-sat)
(get-model)
